p edges 150 542
e 1 18
e 1 22
e 1 51
e 1 57
e 1 65
e 1 103
e 1 114
e 1 122
e 1 128
e 2 39
e 2 68
e 2 83
e 2 134
e 3 14
e 3 55
e 3 98
e 3 111
e 3 113
e 3 123
e 3 143
e 4 16
e 4 27
e 4 38
e 4 67
e 4 75
e 4 83
e 4 110
e 4 113
e 4 141
e 5 30
e 5 36
e 5 49
e 5 60
e 5 91
e 5 129
e 6 40
e 6 98
e 6 148
e 6 149
e 7 22
e 7 32
e 7 50
e 7 53
e 7 58
e 7 82
e 7 85
e 7 88
e 7 103
e 8 38
e 8 60
e 8 81
e 8 86
e 8 105
e 9 67
e 9 71
e 9 72
e 9 111
e 10 46
e 10 55
e 10 62
e 10 65
e 10 94
e 11 14
e 11 20
e 11 30
e 11 74
e 11 88
e 11 93
e 11 102
e 11 139
e 12 27
e 12 56
e 12 58
e 12 76
e 12 87
e 12 90
e 12 145
e 13 21
e 13 43
e 13 96
e 13 131
e 13 146
e 14 74
e 14 82
e 14 99
e 14 101
e 15 38
e 15 101
e 15 134
e 16 17
e 16 20
e 16 26
e 16 29
e 16 76
e 16 97
e 16 130
e 17 28
e 17 32
e 17 37
e 17 39
e 17 64
e 17 88
e 17 95
e 17 106
e 17 142
e 17 147
e 17 148
e 18 20
e 18 26
e 18 30
e 18 36
e 18 49
e 18 59
e 18 71
e 18 91
e 18 102
e 18 105
e 19 59
e 19 67
e 19 86
e 19 92
e 19 112
e 19 117
e 19 149
e 20 29
e 20 33
e 20 70
e 20 72
e 20 80
e 20 84
e 20 96
e 21 46
e 21 63
e 21 113
e 21 125
e 21 133
e 22 36
e 22 56
e 22 65
e 22 68
e 22 89
e 22 102
e 22 107
e 23 93
e 24 68
e 24 77
e 24 87
e 24 89
e 25 44
e 25 115
e 25 129
e 25 130
e 26 28
e 26 77
e 26 86
e 26 102
e 26 139
e 26 143
e 27 115
e 28 41
e 28 59
e 28 80
e 28 100
e 28 109
e 29 32
e 29 49
e 29 107
e 29 119
e 29 141
e 30 85
e 30 87
e 30 94
e 30 113
e 30 119
e 30 149
e 31 35
e 31 50
e 31 104
e 31 114
e 31 122
e 32 69
e 32 119
e 32 143
e 33 69
e 33 94
e 33 115
e 34 36
e 34 63
e 34 93
e 35 56
e 35 81
e 35 86
e 35 131
e 36 41
e 36 60
e 36 69
e 36 74
e 36 84
e 36 122
e 36 124
e 36 141
e 37 42
e 37 53
e 37 59
e 37 72
e 37 81
e 37 86
e 37 116
e 37 123
e 38 56
e 38 97
e 39 69
e 39 87
e 39 104
e 39 125
e 39 147
e 40 47
e 40 55
e 40 62
e 40 90
e 40 123
e 40 139
e 41 135
e 42 63
e 42 68
e 42 73
e 42 89
e 42 90
e 42 92
e 42 94
e 42 104
e 42 120
e 42 132
e 42 135
e 43 90
e 43 91
e 43 111
e 44 52
e 44 65
e 44 98
e 44 109
e 44 129
e 45 137
e 45 150
e 46 54
e 46 61
e 46 100
e 46 102
e 46 103
e 46 107
e 46 108
e 46 124
e 46 126
e 47 68
e 47 72
e 47 97
e 47 115
e 48 54
e 48 90
e 48 113
e 48 117
e 48 120
e 48 126
e 48 130
e 48 136
e 49 56
e 49 58
e 49 70
e 49 97
e 49 111
e 50 77
e 50 96
e 50 123
e 50 138
e 51 92
e 51 96
e 51 111
e 51 123
e 52 53
e 52 56
e 52 94
e 52 112
e 52 136
e 52 147
e 53 89
e 53 116
e 54 124
e 54 144
e 54 149
e 55 63
e 55 70
e 55 80
e 55 89
e 55 120
e 55 121
e 56 63
e 56 75
e 56 108
e 57 66
e 57 78
e 57 110
e 57 147
e 58 73
e 58 79
e 58 80
e 58 84
e 58 116
e 58 121
e 58 122
e 58 126
e 58 140
e 58 145
e 59 91
e 59 110
e 59 150
e 60 75
e 60 115
e 60 149
e 61 115
e 61 117
e 61 144
e 61 150
e 62 66
e 62 78
e 62 80
e 62 125
e 62 130
e 63 70
e 63 128
e 64 80
e 64 83
e 64 100
e 64 136
e 64 137
e 65 68
e 65 84
e 65 108
e 65 114
e 65 140
e 66 94
e 66 123
e 66 145
e 67 74
e 67 95
e 67 98
e 67 119
e 67 126
e 68 70
e 68 103
e 69 77
e 69 81
e 69 88
e 69 90
e 69 138
e 69 142
e 70 86
e 70 98
e 70 113
e 70 117
e 70 140
e 70 150
e 71 87
e 71 122
e 71 131
e 71 143
e 72 82
e 72 99
e 73 77
e 73 91
e 73 107
e 73 148
e 74 101
e 74 107
e 74 114
e 74 115
e 74 136
e 74 142
e 75 80
e 75 85
e 75 134
e 76 82
e 76 145
e 76 150
e 77 83
e 77 85
e 77 91
e 77 120
e 77 135
e 77 145
e 78 85
e 78 120
e 78 122
e 78 147
e 79 84
e 79 91
e 79 92
e 79 123
e 79 139
e 79 143
e 80 139
e 81 82
e 81 97
e 82 133
e 82 138
e 83 93
e 83 120
e 83 141
e 83 143
e 83 144
e 83 147
e 84 87
e 84 109
e 84 112
e 84 130
e 85 86
e 85 97
e 85 108
e 85 118
e 85 124
e 85 127
e 85 128
e 85 131
e 86 116
e 86 127
e 86 131
e 87 92
e 87 96
e 87 97
e 87 104
e 87 146
e 88 105
e 88 109
e 89 123
e 89 140
e 89 144
e 90 112
e 90 148
e 90 149
e 91 98
e 91 103
e 91 110
e 91 115
e 91 121
e 91 122
e 91 130
e 91 134
e 92 111
e 92 119
e 92 121
e 92 128
e 92 141
e 93 97
e 93 113
e 93 123
e 93 137
e 93 141
e 94 98
e 94 119
e 94 138
e 94 149
e 95 131
e 95 138
e 96 118
e 96 134
e 96 138
e 97 101
e 97 133
e 97 136
e 97 146
e 98 125
e 99 115
e 99 146
e 99 147
e 100 150
e 101 130
e 101 134
e 101 140
e 101 147
e 102 121
e 102 129
e 102 141
e 103 114
e 103 121
e 103 123
e 103 133
e 104 115
e 104 121
e 104 126
e 104 129
e 104 132
e 104 133
e 105 113
e 106 135
e 107 113
e 107 127
e 107 136
e 107 142
e 108 110
e 108 111
e 108 124
e 108 140
e 109 120
e 109 129
e 109 139
e 111 120
e 111 126
e 113 114
e 113 132
e 114 122
e 114 134
e 114 140
e 115 123
e 115 145
e 115 148
e 116 137
e 117 122
e 117 124
e 117 129
e 118 145
e 119 124
e 120 135
e 120 139
e 120 148
e 121 129
e 122 123
e 122 140
e 125 129
e 125 134
e 125 148
e 126 131
e 126 138
e 126 143
e 126 146
e 127 150
e 128 132
e 128 137
e 129 136
e 129 150
e 130 143
e 135 140
e 137 142
e 137 148
